experiments/sat_smt/run/sat-r+/results/mary.res
solved=true
solvingTime=4.109405517578125
nActions=10