experiments/sat_smt/run/sat-r+/results/mary.out
Timesteps: 1
s UNSATISFIABLE
real 0.10
user 0.01
sys 0.00
Timesteps: 2
s UNSATISFIABLE
real 0.07
user 0.02
sys 0.00
Timesteps: 3
s UNSATISFIABLE
real 0.10
user 0.02
sys 0.00
Timesteps: 4
s UNSATISFIABLE
real 0.12
user 0.04
sys 0.00
Timesteps: 5
s UNSATISFIABLE
real 0.11
user 0.06
sys 0.00
Timesteps: 6
s UNSATISFIABLE
real 0.20
user 0.14
sys 0.00
Timesteps: 7
s UNSATISFIABLE
real 0.36
user 0.28
sys 0.00
Timesteps: 8
s UNSATISFIABLE
real 0.62
user 0.53
sys 0.01
Timesteps: 9
s UNSATISFIABLE
real 1.15
user 0.94
sys 0.01
Timesteps: 10
s SATISFIABLE
real 1.03
user 0.91
sys 0.01
